c CNF generator v0.9
p cnf 50 50
28 -14 3 0
-21 24 15 0
20 -30 -39 0
-43 48 -4 0
34 27 34 0
16 -25 -26 0
-8 -38 44 0
4 -46 20 0
19 -48 -44 0
-13 -43 8 0
40 -13 -40 0
34 40 32 0
-21 48 28 0
-39 -6 -50 0
45 15 -40 0
31 50 20 0
-4 -28 -34 0
-5 -43 50 0
39 -45 48 0
-13 -48 12 0
6 -21 -22 0
10 41 -42 0
10 34 22 0
-24 13 -41 0
-17 3 -32 0
-43 30 48 0
42 10 -27 0
-44 -27 5 0
-40 29 7 0
-29 40 30 0
19 13 42 0
-43 -33 -14 0
47 -13 11 0
32 -37 25 0
49 -45 -49 0
9 -24 -23 0
29 6 -20 0
-21 48 15 0
21 30 -10 0
43 -5 -48 0
22 45 29 0
10 -3 36 0
29 23 -34 0
-3 12 -7 0
-3 -29 38 0
-11 -4 22 0
6 -47 -32 0
-18 40 -7 0
-43 -23 44 0
32 -45 -11 0
